(declare-fun Constructed_Argument_t () String)
(declare-fun CreateAsClass () Bool)
(declare-fun Constructed_Argument () Bool)
(declare-fun ExpandObjSwitcher () Real)
(declare-fun Constructed_Argument_2_t () String)
(declare-fun Constructed_Argument_2_Array_Length () Int)
(declare-fun CreateAsClass_2 () Bool)
(assert (= Constructed_Argument_t "boolean"))
(assert CreateAsClass)
(assert Constructed_Argument)
(assert (= ExpandObjSwitcher 0.0))
(assert (= Constructed_Argument_2_t "array_string"))
(assert (>= Constructed_Argument_2_Array_Length 0))
(assert (not CreateAsClass_2))
(assert (<= (to_real Constructed_Argument_2_Array_Length) 0.0))
(check-sat)
